Welcome to the CBC MILP Solver 
Version: Trunk
Build Date: Apr 16 2020 

Starting solution of the Linear programming relaxation problem using Primal Simplex

Using Python-MIP package version 1.8.1
Machines:  4 Jobs:  4
Order: 
Job  0 : machine 0 ( 10 ) machine 3 ( 1 ) machine 2 ( 6 ) machine 1 ( 7 ) 
Job  1 : machine 0 ( 1 ) machine 3 ( 7 ) machine 1 ( 5 ) machine 2 ( 8 ) 
Job  2 : machine 3 ( 9 ) machine 2 ( 3 ) machine 1 ( 7 ) machine 0 ( 1 ) 
Job  3 : machine 1 ( 7 ) machine 3 ( 3 ) machine 0 ( 9 ) machine 2 ( 10 ) 
K:  44
Job  0 , e: machine  0 ( 0 ) machine  1 ( 17 ) machine  2 ( 11 ) machine  3 ( 10 ) 
Job  1 , e: machine  0 ( 0 ) machine  1 ( 8 ) machine  2 ( 13 ) machine  3 ( 1 ) 
Job  2 , e: machine  0 ( 19 ) machine  1 ( 12 ) machine  2 ( 9 ) machine  3 ( 0 ) 
Job  3 , e: machine  0 ( 10 ) machine  1 ( 0 ) machine  2 ( 19 ) machine  3 ( 7 ) 
Job  0 , f: machine  0 ( 14 ) machine  1 ( 0 ) machine  2 ( 7 ) machine  3 ( 13 ) 
Job  1 , f: machine  0 ( 20 ) machine  1 ( 8 ) machine  2 ( 0 ) machine  3 ( 13 ) 
Job  2 , f: machine  0 ( 0 ) machine  1 ( 1 ) machine  2 ( 8 ) machine  3 ( 11 ) 
Job  3 , f: machine  0 ( 10 ) machine  1 ( 22 ) machine  2 ( 0 ) machine  3 ( 19 ) 
EST and LST:
Job: 0 Machine: 0 EST: 0 LST: 20
Job: 0 Machine: 1 EST: 17 LST: 37
Job: 0 Machine: 2 EST: 11 LST: 31
Job: 0 Machine: 3 EST: 10 LST: 30
Job: 1 Machine: 0 EST: 0 LST: 23
Job: 1 Machine: 1 EST: 8 LST: 31
Job: 1 Machine: 2 EST: 13 LST: 36
Job: 1 Machine: 3 EST: 1 LST: 24
Job: 2 Machine: 0 EST: 19 LST: 43
Job: 2 Machine: 1 EST: 12 LST: 36
Job: 2 Machine: 2 EST: 9 LST: 33
Job: 2 Machine: 3 EST: 0 LST: 24
Job: 3 Machine: 0 EST: 10 LST: 25
Job: 3 Machine: 1 EST: 0 LST: 15
Job: 3 Machine: 2 EST: 19 LST: 34
Job: 3 Machine: 3 EST: 7 LST: 22
Order:
Job: 0 Machine: 0 = 0 
Job: 0 Machine: 1 = 3 
Job: 0 Machine: 2 = 2 
Job: 0 Machine: 3 = 1 
Job: 1 Machine: 0 = 0 
Job: 1 Machine: 1 = 2 
Job: 1 Machine: 2 = 3 
Job: 1 Machine: 3 = 1 
Job: 2 Machine: 0 = 3 
Job: 2 Machine: 1 = 2 
Job: 2 Machine: 2 = 1 
Job: 2 Machine: 3 = 0 
Job: 3 Machine: 0 = 2 
Job: 3 Machine: 1 = 0 
Job: 3 Machine: 2 = 3 
Job: 3 Machine: 3 = 1 
Distances:
Job 0, Machine 0 -> Machine 3: distance 10
Job 0, Machine 0 -> Machine 2: distance 11
Job 0, Machine 0 -> Machine 1: distance 17
Job 0, Machine 3 -> Machine 2: distance 1
Job 0, Machine 3 -> Machine 1: distance 7
Job 0, Machine 2 -> Machine 1: distance 6
Job 1, Machine 0 -> Machine 3: distance 1
Job 1, Machine 0 -> Machine 1: distance 8
Job 1, Machine 0 -> Machine 2: distance 13
Job 1, Machine 3 -> Machine 1: distance 7
Job 1, Machine 3 -> Machine 2: distance 12
Job 1, Machine 1 -> Machine 2: distance 5
Job 2, Machine 3 -> Machine 2: distance 9
Job 2, Machine 3 -> Machine 1: distance 12
Job 2, Machine 3 -> Machine 0: distance 19
Job 2, Machine 2 -> Machine 1: distance 3
Job 2, Machine 2 -> Machine 0: distance 10
Job 2, Machine 1 -> Machine 0: distance 7
Job 3, Machine 1 -> Machine 3: distance 7
Job 3, Machine 1 -> Machine 0: distance 10
Job 3, Machine 1 -> Machine 2: distance 19
Job 3, Machine 3 -> Machine 0: distance 3
Job 3, Machine 3 -> Machine 2: distance 12
Job 3, Machine 0 -> Machine 2: distance 9
McCormic linearization
{(0, 1), (0, 0), (2, 1), (2, 0), (1, 0), (1, 1)}
[(0, 1), (0, 0), (2, 1), (2, 0), (1, 0), (1, 1)]
obj:  0.6000000000000001
solutions:  1
+ x(0,0) + 0.1x(1,0) 
C:  28.999999999999996
x(0,0) = 0.20	 x(0,1) = 19.00	 x(0,2) = 13.00	 x(0,3) = 10.20	 
x(1,0) = 8.00	 x(1,1) = 16.00	 x(1,2) = 21.00	 x(1,3) = 9.00	 
x(2,0) = 20.20	 x(2,1) = 13.20	 x(2,2) = 10.20	 x(2,3) = 1.20	 
x(3,0) = 10.00	 x(3,1) = 0.00	 x(3,2) = 19.00	 x(3,3) = 7.00	 
y(0,1,0) = 0.37	 y(1,0,0) = 0.63	 
y(0,2,0) = 0.48	 y(2,0,0) = 0.52	 
y(0,3,0) = 0.99	 y(3,0,0) = 0.01	 
y(1,2,0) = 0.30	 y(2,1,0) = 0.70	 
y(1,3,0) = 0.96	 y(3,1,0) = 0.04	 
y(2,3,0) = 0.00	 y(3,2,0) = 1.00	 
y(0,1,1) = 0.48	 y(1,0,1) = 0.52	 
y(0,2,1) = 0.05	 y(2,0,1) = 0.95	 
y(0,3,1) = 0.00	 y(3,0,1) = 1.00	 
y(1,2,1) = 0.12	 y(2,1,1) = 0.88	 
y(1,3,1) = 0.38	 y(3,1,1) = 0.62	 
y(2,3,1) = 0.00	 y(3,2,1) = 1.00	 
y(0,1,2) = 0.48	 y(1,0,2) = 0.52	 
y(0,2,2) = 0.44	 y(2,0,2) = 0.56	 
y(0,3,2) = 1.00	 y(3,0,2) = 0.00	 
y(1,2,2) = 0.00	 y(2,1,2) = 1.00	 
y(1,3,2) = 0.26	 y(3,1,2) = 0.74	 
y(2,3,2) = 0.74	 y(3,2,2) = 0.26	 
y(0,1,3) = 0.28	 y(1,0,3) = 0.72	 
y(0,2,3) = 0.00	 y(2,0,3) = 1.00	 
y(0,3,3) = 0.01	 y(3,0,3) = 0.99	 
y(1,2,3) = 0.04	 y(2,1,3) = 0.96	 
y(1,3,3) = 0.04	 y(3,1,3) = 0.96	 
y(2,3,3) = 0.35	 y(3,2,3) = 0.65	 
{(1, 2), (0, 1), (3, 2), (1, 3), (0, 2), (2, 3), (0, 3), (1, 1)}
obj:  0.9076086956521738
solutions:  1
+ 0.013586956521739128x(1,2) + 0.027173913043478264x(3,2) + 0.00815217391304348x(0,2) 
[(1, 2), (0, 1), (3, 2), (1, 3), (0, 2), (2, 3), (0, 3), (1, 1)]
cliques:  1 mip: 72
C:  33.0268456375839
x(0,0) = 0.73	 x(0,1) = 26.03	 x(0,2) = 20.03	 x(0,3) = 10.73	 
x(1,0) = 2.73	 x(1,1) = 15.02	 x(1,2) = 23.58	 x(1,3) = 3.73	 
x(2,0) = 24.24	 x(2,1) = 17.24	 x(2,2) = 14.24	 x(2,3) = 5.24	 
x(3,0) = 10.00	 x(3,1) = 0.00	 x(3,2) = 19.00	 x(3,3) = 7.00	 
y(0,1,0) = 0.13	 y(1,0,0) = 0.88	 
y(0,2,0) = 0.90	 y(2,0,0) = 0.10	 
y(0,3,0) = 0.96	 y(3,0,0) = 0.04	 
y(1,2,0) = 0.51	 y(2,1,0) = 0.49	 
y(1,3,0) = 0.74	 y(3,1,0) = 0.26	 
y(2,3,0) = 0.00	 y(3,2,0) = 1.00	 
y(0,1,1) = 0.07	 y(1,0,1) = 0.93	 
y(0,2,1) = 0.10	 y(2,0,1) = 0.90	 
y(0,3,1) = 0.00	 y(3,0,1) = 1.00	 
y(1,2,1) = 0.26	 y(2,1,1) = 0.74	 
y(1,3,1) = 0.44	 y(3,1,1) = 0.56	 
y(2,3,1) = 0.00	 y(3,2,1) = 1.00	 
y(0,1,2) = 0.47	 y(1,0,2) = 0.53	 
y(0,2,2) = 0.15	 y(2,0,2) = 0.85	 
y(0,3,2) = 0.61	 y(3,0,2) = 0.39	 
y(1,2,2) = 0.00	 y(2,1,2) = 1.00	 
y(1,3,2) = 0.50	 y(3,1,2) = 0.50	 
y(2,3,2) = 0.92	 y(3,2,2) = 0.08	 
y(0,1,3) = 0.00	 y(1,0,3) = 1.00	 
y(0,2,3) = 0.24	 y(2,0,3) = 0.76	 
y(0,3,3) = 0.04	 y(3,0,3) = 0.96	 
y(1,2,3) = 0.33	 y(2,1,3) = 0.67	 
y(1,3,3) = 0.26	 y(3,1,3) = 0.74	 
y(2,3,3) = 0.27	 y(3,2,3) = 0.73	 
{(1, 2), (3, 2), (0, 0), (3, 0), (0, 2), (1, 1)}
obj:  0.9700767547925396
solutions:  1
+ 0.0055248618784530384x(1,2) + 0.04419889502762431x(3,2) 
[(1, 2), (3, 2), (0, 0), (3, 0), (0, 2), (1, 1)]
cliques:  1 mip: 104
C:  34.0
x(0,0) = 0.33	 x(0,1) = 27.00	 x(0,2) = 17.33	 x(0,3) = 10.33	 
x(1,0) = 6.70	 x(1,1) = 14.70	 x(1,2) = 19.70	 x(1,3) = 7.70	 
x(2,0) = 21.40	 x(2,1) = 14.40	 x(2,2) = 11.40	 x(2,3) = 2.40	 
x(3,0) = 13.26	 x(3,1) = 3.26	 x(3,2) = 22.26	 x(3,3) = 10.26	 
y(0,1,0) = 0.31	 y(1,0,0) = 0.69	 
y(0,2,0) = 0.84	 y(2,0,0) = 0.16	 
y(0,3,0) = 1.00	 y(3,0,0) = 0.00	 
y(1,2,0) = 0.36	 y(2,1,0) = 0.64	 
y(1,3,0) = 0.77	 y(3,1,0) = 0.23	 
y(2,3,0) = 0.06	 y(3,2,0) = 0.94	 
y(0,1,1) = 0.00	 y(1,0,1) = 1.00	 
y(0,2,1) = 0.31	 y(2,0,1) = 0.69	 
y(0,3,1) = 0.00	 y(3,0,1) = 1.00	 
y(1,2,1) = 0.19	 y(2,1,1) = 0.81	 
y(1,3,1) = 0.12	 y(3,1,1) = 0.88	 
y(2,3,1) = 0.00	 y(3,2,1) = 1.00	 
y(0,1,2) = 0.48	 y(1,0,2) = 0.52	 
y(0,2,2) = 0.12	 y(2,0,2) = 0.88	 
y(0,3,2) = 0.89	 y(3,0,2) = 0.11	 
y(1,2,2) = 0.00	 y(2,1,2) = 1.00	 
y(1,3,2) = 0.78	 y(3,1,2) = 0.22	 
y(2,3,2) = 0.64	 y(3,2,2) = 0.36	 
y(0,1,3) = 0.31	 y(1,0,3) = 0.69	 
y(0,2,3) = 0.19	 y(2,0,3) = 0.81	 
y(0,3,3) = 0.20	 y(3,0,3) = 0.80	 
y(1,2,3) = 0.12	 y(2,1,3) = 0.88	 
y(1,3,3) = 0.23	 y(3,1,3) = 0.77	 
y(2,3,3) = 0.43	 y(3,2,3) = 0.57	 
{(1, 2), (3, 2), (1, 3), (0, 2), (2, 3), (0, 3), (1, 1)}
obj:  0.9333595180928931
solutions:  1
+ 0.06713164777680901x(1,3) + 0.0610287707061901x(2,3) + 0.026155187445509993x(0,3) 
[(1, 2), (3, 2), (1, 3), (0, 2), (2, 3), (0, 3), (1, 1)]
cliques:  1 mip: 104
C:  33.99999999999999
x(0,0) = 1.00	 x(0,1) = 27.00	 x(0,2) = 18.72	 x(0,3) = 12.10	 
x(1,0) = 0.13	 x(1,1) = 10.21	 x(1,2) = 16.00	 x(1,3) = 3.21	 
x(2,0) = 26.67	 x(2,1) = 19.67	 x(2,2) = 16.67	 x(2,3) = 7.67	 
x(3,0) = 12.87	 x(3,1) = 2.87	 x(3,2) = 24.00	 x(3,3) = 9.87	 
y(0,1,0) = 0.02	 y(1,0,0) = 0.98	 
y(0,2,0) = 1.00	 y(2,0,0) = 0.00	 
y(0,3,0) = 1.00	 y(3,0,0) = 0.00	 
y(1,2,0) = 0.63	 y(2,1,0) = 0.37	 
y(1,3,0) = 0.64	 y(3,1,0) = 0.36	 
y(2,3,0) = 0.20	 y(3,2,0) = 0.80	 
y(0,1,1) = 0.00	 y(1,0,1) = 1.00	 
y(0,2,1) = 0.02	 y(2,0,1) = 0.98	 
y(0,3,1) = 0.00	 y(3,0,1) = 1.00	 
y(1,2,1) = 0.47	 y(2,1,1) = 0.53	 
y(1,3,1) = 0.00	 y(3,1,1) = 1.00	 
y(2,3,1) = 0.00	 y(3,2,1) = 1.00	 
y(0,1,2) = 0.33	 y(1,0,2) = 0.67	 
y(0,2,2) = 0.17	 y(2,0,2) = 0.83	 
y(0,3,2) = 0.96	 y(3,0,2) = 0.04	 
y(1,2,2) = 0.16	 y(2,1,2) = 0.84	 
y(1,3,2) = 1.00	 y(3,1,2) = 0.00	 
y(2,3,2) = 0.80	 y(3,2,2) = 0.20	 
y(0,1,3) = 0.06	 y(1,0,3) = 0.94	 
y(0,2,3) = 0.20	 y(2,0,3) = 0.80	 
y(0,3,3) = 0.05	 y(3,0,3) = 0.95	 
y(1,2,3) = 0.42	 y(2,1,3) = 0.58	 
y(1,3,3) = 0.62	 y(3,1,3) = 0.38	 
y(2,3,3) = 0.21	 y(3,2,3) = 0.79	 
{(1, 2), (1, 3), (2, 1), (1, 1), (2, 3), (2, 2), (0, 3), (0, 2)}
obj:  1.0000000000000004
erro
[(1, 2), (1, 3), (2, 1), (1, 1), (2, 3), (2, 2), (0, 3), (0, 2)]
cliques:  0 mip: 120
C:  33.99999999999999
x(0,0) = 1.00	 x(0,1) = 27.00	 x(0,2) = 18.35	 x(0,3) = 12.47	 
x(1,0) = 0.00	 x(1,1) = 10.06	 x(1,2) = 15.53	 x(1,3) = 3.06	 
x(2,0) = 26.67	 x(2,1) = 19.67	 x(2,2) = 16.67	 x(2,3) = 7.67	 
x(3,0) = 12.47	 x(3,1) = 0.00	 x(3,2) = 23.53	 x(3,3) = 9.47	 
y(0,1,0) = 0.63	 y(1,0,0) = 0.37	 
y(0,2,0) = 1.00	 y(2,0,0) = 0.00	 
y(0,3,0) = 1.00	 y(3,0,0) = 0.00	 
y(1,2,0) = 0.63	 y(2,1,0) = 0.37	 
y(1,3,0) = 0.63	 y(3,1,0) = 0.37	 
y(2,3,0) = 0.22	 y(3,2,0) = 0.78	 
y(0,1,1) = 0.17	 y(1,0,1) = 0.83	 
y(0,2,1) = 0.02	 y(2,0,1) = 0.98	 
y(0,3,1) = 0.00	 y(3,0,1) = 1.00	 
y(1,2,1) = 0.80	 y(2,1,1) = 0.20	 
y(1,3,1) = 0.00	 y(3,1,1) = 1.00	 
y(2,3,1) = 0.00	 y(3,2,1) = 1.00	 
y(0,1,2) = 0.16	 y(1,0,2) = 0.84	 
y(0,2,2) = 0.08	 y(2,0,2) = 0.92	 
y(0,3,2) = 0.83	 y(3,0,2) = 0.17	 
y(1,2,2) = 0.18	 y(2,1,2) = 0.82	 
y(1,3,2) = 1.00	 y(3,1,2) = 0.00	 
y(2,3,2) = 0.83	 y(3,2,2) = 0.17	 
y(0,1,3) = 0.00	 y(1,0,3) = 1.00	 
y(0,2,3) = 0.18	 y(2,0,3) = 0.82	 
y(0,3,3) = 0.00	 y(3,0,3) = 1.00	 
y(1,2,3) = 0.75	 y(2,1,3) = 0.25	 
y(1,3,3) = 0.76	 y(3,1,3) = 0.24	 
y(2,3,3) = 0.21	 y(3,2,3) = 0.79	 
{(2, 0), (1, 0), (2, 1)}
obj:  1.4037586204245125
erro
[(2, 0), (1, 0), (2, 1)]
cliques:  0 mip: 110
C:  33.99999999999999
x(0,0) = 1.99	 x(0,1) = 25.15	 x(0,2) = 19.15	 x(0,3) = 13.71	 
x(1,0) = 2.37	 x(1,1) = 10.37	 x(1,2) = 15.37	 x(1,3) = 3.37	 
x(2,0) = 30.14	 x(2,1) = 23.14	 x(2,2) = 15.80	 x(2,3) = 6.80	 
x(3,0) = 11.99	 x(3,1) = 0.00	 x(3,2) = 23.37	 x(3,3) = 8.99	 
y(0,1,0) = 0.24	 y(1,0,0) = 0.76	 
y(0,2,0) = 0.96	 y(2,0,0) = 0.04	 
y(0,3,0) = 1.00	 y(3,0,0) = 0.00	 
y(1,2,0) = 0.65	 y(2,1,0) = 0.35	 
y(1,3,0) = 0.92	 y(3,1,0) = 0.08	 
y(2,3,0) = 0.38	 y(3,2,0) = 0.62	 
y(0,1,1) = 0.25	 y(1,0,1) = 0.75	 
y(0,2,1) = 0.19	 y(2,0,1) = 0.81	 
y(0,3,1) = 0.00	 y(3,0,1) = 1.00	 
y(1,2,1) = 0.56	 y(2,1,1) = 0.44	 
y(1,3,1) = 0.00	 y(3,1,1) = 1.00	 
y(2,3,1) = 0.00	 y(3,2,1) = 1.00	 
y(0,1,2) = 0.24	 y(1,0,2) = 0.76	 
y(0,2,2) = 0.02	 y(2,0,2) = 0.98	 
y(0,3,2) = 0.76	 y(3,0,2) = 0.24	 
y(1,2,2) = 0.70	 y(2,1,2) = 0.30	 
y(1,3,2) = 1.00	 y(3,1,2) = 0.00	 
y(2,3,2) = 0.79	 y(3,2,2) = 0.21	 
y(0,1,3) = 0.00	 y(1,0,3) = 1.00	 
y(0,2,3) = 0.13	 y(2,0,3) = 0.87	 
y(0,3,3) = 0.00	 y(3,0,3) = 1.00	 
y(1,2,3) = 0.47	 y(2,1,3) = 0.53	 
y(1,3,3) = 0.57	 y(3,1,3) = 0.43	 
y(2,3,3) = 0.21	 y(3,2,3) = 0.79	 
{(1, 3), (0, 0), (3, 3), (2, 3), (1, 0), (0, 3)}
obj:  0.8757159938391954
solutions:  1
+ 0.055467511885895396x(1,3) + 0.023771790808240878x(3,3) + 0.05705229793977813x(2,3) + 0.006339144215530912x(0,3) 
[(1, 3), (0, 0), (3, 3), (2, 3), (1, 0), (0, 3)]
cliques:  1 mip: 124
C:  33.99999999999941
x(0,0) = 5.00	 x(0,1) = 27.00	 x(0,2) = 20.32	 x(0,3) = 15.87	 
x(1,0) = 2.26	 x(1,1) = 11.00	 x(1,2) = 16.00	 x(1,3) = 4.00	 
x(2,0) = 31.66	 x(2,1) = 24.66	 x(2,2) = 17.96	 x(2,3) = 8.96	 
x(3,0) = 15.00	 x(3,1) = 0.00	 x(3,2) = 24.00	 x(3,3) = 7.00	 
y(0,1,0) = 0.23	 y(1,0,0) = 0.77	 
y(0,2,0) = 0.99	 y(2,0,0) = 0.01	 
y(0,3,0) = 1.00	 y(3,0,0) = 0.00	 
y(1,2,0) = 0.69	 y(2,1,0) = 0.31	 
y(1,3,0) = 0.85	 y(3,1,0) = 0.15	 
y(2,3,0) = 0.00	 y(3,2,0) = 1.00	 
y(0,1,1) = 0.30	 y(1,0,1) = 0.70	 
y(0,2,1) = 0.18	 y(2,0,1) = 0.82	 
y(0,3,1) = 0.00	 y(3,0,1) = 1.00	 
y(1,2,1) = 0.59	 y(2,1,1) = 0.41	 
y(1,3,1) = 0.00	 y(3,1,1) = 1.00	 
y(2,3,1) = 0.00	 y(3,2,1) = 1.00	 
y(0,1,2) = 0.24	 y(1,0,2) = 0.76	 
y(0,2,2) = 0.03	 y(2,0,2) = 0.97	 
y(0,3,2) = 0.71	 y(3,0,2) = 0.29	 
y(1,2,2) = 0.64	 y(2,1,2) = 0.36	 
y(1,3,2) = 1.00	 y(3,1,2) = -0.00	 
y(2,3,2) = 0.93	 y(3,2,2) = 0.07	 
y(0,1,3) = 0.00	 y(1,0,3) = 1.00	 
y(0,2,3) = 0.10	 y(2,0,3) = 0.90	 
y(0,3,3) = 0.00	 y(3,0,3) = 1.00	 
y(1,2,3) = 0.50	 y(2,1,3) = 0.50	 
y(1,3,3) = 0.25	 y(3,1,3) = 0.75	 
y(2,3,3) = 0.04	 y(3,2,3) = 0.96	 
{(1, 3), (3, 3), (2, 3), (1, 0), (0, 3)}
obj:  0.8817634746206622
solutions:  1
+ 0.006122448979591835x(1,3) + 0.10010465724751438x(3,3) + 0.014599686028257461x(2,3) + 0.0016221873364730527x(0,3) 
[(1, 3), (3, 3), (2, 3), (1, 0), (0, 3)]
cliques:  1 mip: 90
C:  34.00000000000001
x(0,0) = 4.36	 x(0,1) = 25.69	 x(0,2) = 18.67	 x(0,3) = 14.36	 
x(1,0) = 2.36	 x(1,1) = 10.36	 x(1,2) = 15.36	 x(1,3) = 3.36	 
x(2,0) = 33.00	 x(2,1) = 26.00	 x(2,2) = 17.33	 x(2,3) = 8.33	 
x(3,0) = 14.52	 x(3,1) = 3.39	 x(3,2) = 23.52	 x(3,3) = 10.39	 
y(0,1,0) = 0.09	 y(1,0,0) = 0.91	 
y(0,2,0) = 1.00	 y(2,0,0) = 0.00	 
y(0,3,0) = 1.00	 y(3,0,0) = 0.00	 
y(1,2,0) = 0.78	 y(2,1,0) = 0.22	 
y(1,3,0) = 0.94	 y(3,1,0) = 0.06	 
y(2,3,0) = 0.03	 y(3,2,0) = 0.97	 
y(0,1,1) = 0.38	 y(1,0,1) = 0.62	 
y(0,2,1) = 0.79	 y(2,0,1) = 0.21	 
y(0,3,1) = 0.00	 y(3,0,1) = 1.00	 
y(1,2,1) = 0.72	 y(2,1,1) = 0.28	 
y(1,3,1) = 0.00	 y(3,1,1) = 1.00	 
y(2,3,1) = 0.00	 y(3,2,1) = 1.00	 
y(0,1,2) = 0.19	 y(1,0,2) = 0.81	 
y(0,2,2) = 0.07	 y(2,0,2) = 0.93	 
y(0,3,2) = 0.68	 y(3,0,2) = 0.32	 
y(1,2,2) = 0.23	 y(2,1,2) = 0.77	 
y(1,3,2) = 1.00	 y(3,1,2) = 0.00	 
y(2,3,2) = 0.86	 y(3,2,2) = 0.14	 
y(0,1,3) = 0.00	 y(1,0,3) = 1.00	 
y(0,2,3) = 0.13	 y(2,0,3) = 0.87	 
y(0,3,3) = 0.00	 y(3,0,3) = 1.00	 
y(1,2,3) = 0.66	 y(2,1,3) = 0.34	 
y(1,3,3) = 1.00	 y(3,1,3) = 0.00	 
y(2,3,3) = 0.20	 y(3,2,3) = 0.80	 
{(0, 1), (1, 2), (1, 3), (2, 1), (1, 1), (2, 3), (0, 3), (0, 2)}
obj:  1.0669040743402054
erro
[(0, 1), (1, 2), (1, 3), (2, 1), (1, 1), (2, 3), (0, 3), (0, 2)]
cliques:  0 mip: 111
C:  34.0
x(0,0) = 2.28	 x(0,1) = 27.00	 x(0,2) = 21.00	 x(0,3) = 12.28	 
x(1,0) = 1.93	 x(1,1) = 11.00	 x(1,2) = 16.00	 x(1,3) = 4.00	 
x(2,0) = 33.00	 x(2,1) = 26.00	 x(2,2) = 18.42	 x(2,3) = 7.95	 
x(3,0) = 14.14	 x(3,1) = 4.14	 x(3,2) = 24.00	 x(3,3) = 11.14	 
y(0,1,0) = 0.19	 y(1,0,0) = 0.81	 
y(0,2,0) = 1.00	 y(2,0,0) = 0.00	 
y(0,3,0) = 1.00	 y(3,0,0) = 0.00	 
y(1,2,0) = 0.81	 y(2,1,0) = 0.19	 
y(1,3,0) = 1.00	 y(3,1,0) = 0.00	 
y(2,3,0) = 0.00	 y(3,2,0) = 1.00	 
y(0,1,1) = 0.36	 y(1,0,1) = 0.64	 
y(0,2,1) = 0.23	 y(2,0,1) = 0.77	 
y(0,3,1) = 0.00	 y(3,0,1) = 1.00	 
y(1,2,1) = 0.74	 y(2,1,1) = 0.26	 
y(1,3,1) = 0.01	 y(3,1,1) = 0.99	 
y(2,3,1) = 0.00	 y(3,2,1) = 1.00	 
y(0,1,2) = 0.30	 y(1,0,2) = 0.70	 
y(0,2,2) = 0.05	 y(2,0,2) = 0.95	 
y(0,3,2) = 0.66	 y(3,0,2) = 0.34	 
y(1,2,2) = 0.34	 y(2,1,2) = 0.66	 
y(1,3,2) = 1.00	 y(3,1,2) = 0.00	 
y(2,3,2) = 0.91	 y(3,2,2) = 0.09	 
y(0,1,3) = 0.01	 y(1,0,3) = 0.99	 
y(0,2,3) = 0.20	 y(2,0,3) = 0.80	 
y(0,3,3) = 0.17	 y(3,0,3) = 0.83	 
y(1,2,3) = 0.63	 y(2,1,3) = 0.37	 
y(1,3,3) = 1.00	 y(3,1,3) = 0.00	 
y(2,3,3) = 0.25	 y(3,2,3) = 0.75	 
{(1, 3), (0, 0), (3, 3), (2, 3), (1, 0), (0, 3)}
obj:  1.0084438444900135
erro
[(1, 3), (0, 0), (3, 3), (2, 3), (1, 0), (0, 3)]
cliques:  0 mip: 93
C:  34.0
x(0,0) = 1.34	 x(0,1) = 24.47	 x(0,2) = 18.47	 x(0,3) = 13.68	 
x(1,0) = 1.28	 x(1,1) = 10.51	 x(1,2) = 15.51	 x(1,3) = 3.51	 
x(2,0) = 31.74	 x(2,1) = 24.74	 x(2,2) = 17.91	 x(2,3) = 8.22	 
x(3,0) = 13.51	 x(3,1) = 3.51	 x(3,2) = 23.51	 x(3,3) = 10.51	 
y(0,1,0) = 0.13	 y(1,0,0) = 0.87	 
y(0,2,0) = 1.00	 y(2,0,0) = 0.00	 
y(0,3,0) = 1.00	 y(3,0,0) = 0.00	 
y(1,2,0) = 0.74	 y(2,1,0) = 0.26	 
y(1,3,0) = 0.97	 y(3,1,0) = 0.03	 
y(2,3,0) = 0.13	 y(3,2,0) = 0.87	 
y(0,1,1) = 0.14	 y(1,0,1) = 0.86	 
y(0,2,1) = 0.79	 y(2,0,1) = 0.21	 
y(0,3,1) = 0.00	 y(3,0,1) = 1.00	 
y(1,2,1) = 0.62	 y(2,1,1) = 0.38	 
y(1,3,1) = 0.00	 y(3,1,1) = 1.00	 
y(2,3,1) = 0.00	 y(3,2,1) = 1.00	 
y(0,1,2) = 0.57	 y(1,0,2) = 0.43	 
y(0,2,2) = 0.18	 y(2,0,2) = 0.82	 
y(0,3,2) = 0.87	 y(3,0,2) = 0.13	 
y(1,2,2) = 0.48	 y(2,1,2) = 0.52	 
y(1,3,2) = 1.00	 y(3,1,2) = 0.00	 
y(2,3,2) = 0.88	 y(3,2,2) = 0.12	 
y(0,1,3) = 0.14	 y(1,0,3) = 0.86	 
y(0,2,3) = 0.15	 y(2,0,3) = 0.85	 
y(0,3,3) = 0.00	 y(3,0,3) = 1.00	 
y(1,2,3) = 0.51	 y(2,1,3) = 0.49	 
y(1,3,3) = 1.00	 y(3,1,3) = 0.00	 
y(2,3,3) = 0.21	 y(3,2,3) = 0.79	 
{(1, 3), (0, 0), (3, 3), (2, 3), (1, 0), (0, 3)}
obj:  0.9999999999999997
erro
[(1, 3), (0, 0), (3, 3), (2, 3), (1, 0), (0, 3)]
cliques:  0 mip: 110
C:  34.0
x(0,0) = 1.37	 x(0,1) = 27.00	 x(0,2) = 17.88	 x(0,3) = 13.30	 
x(1,0) = 1.41	 x(1,1) = 9.87	 x(1,2) = 14.87	 x(1,3) = 2.41	 
x(2,0) = 27.91	 x(2,1) = 20.91	 x(2,2) = 17.91	 x(2,3) = 8.91	 
x(3,0) = 15.00	 x(3,1) = 5.00	 x(3,2) = 24.00	 x(3,3) = 12.00	 
y(0,1,0) = 0.14	 y(1,0,0) = 0.86	 
y(0,2,0) = 1.00	 y(2,0,0) = 0.00	 
y(0,3,0) = 1.00	 y(3,0,0) = 0.00	 
y(1,2,0) = 0.71	 y(2,1,0) = 0.29	 
y(1,3,0) = 0.97	 y(3,1,0) = 0.03	 
y(2,3,0) = 0.04	 y(3,2,0) = 0.96	 
y(0,1,1) = 0.00	 y(1,0,1) = 1.00	 
y(0,2,1) = 0.15	 y(2,0,1) = 0.85	 
y(0,3,1) = 0.00	 y(3,0,1) = 1.00	 
y(1,2,1) = 0.70	 y(2,1,1) = 0.30	 
y(1,3,1) = 0.19	 y(3,1,1) = 0.81	 
y(2,3,1) = 0.00	 y(3,2,1) = 1.00	 
y(0,1,2) = 0.62	 y(1,0,2) = 0.38	 
y(0,2,2) = 0.17	 y(2,0,2) = 0.83	 
y(0,3,2) = 0.70	 y(3,0,2) = 0.30	 
y(1,2,2) = 0.26	 y(2,1,2) = 0.74	 
y(1,3,2) = 1.00	 y(3,1,2) = -0.00	 
y(2,3,2) = 0.86	 y(3,2,2) = 0.14	 
y(0,1,3) = 0.18	 y(1,0,3) = 0.82	 
y(0,2,3) = 0.20	 y(2,0,3) = 0.80	 
y(0,3,3) = 0.11	 y(3,0,3) = 0.89	 
y(1,2,3) = 0.48	 y(2,1,3) = 0.52	 
y(1,3,3) = 1.00	 y(3,1,3) = 0.00	 
y(2,3,3) = 0.24	 y(3,2,3) = 0.76	 
{(1, 3), (0, 0), (3, 3), (2, 3), (1, 0), (0, 3)}
obj:  0.9990166723443304
solutions:  1
+ 0.057319587628865964x(1,3) + 0.009072164948453615x(3,3) + 0.053608247422680416x(2,3) + 0.020618556701030924x(0,3) 
[(1, 3), (0, 0), (3, 3), (2, 3), (1, 0), (0, 3)]
cliques:  1 mip: 0
C:  33.99999999999999
x(0,0) = 1.37	 x(0,1) = 27.00	 x(0,2) = 17.87	 x(0,3) = 13.30	 
x(1,0) = 1.42	 x(1,1) = 9.88	 x(1,2) = 14.88	 x(1,3) = 2.42	 
x(2,0) = 27.94	 x(2,1) = 20.92	 x(2,2) = 17.92	 x(2,3) = 8.92	 
x(3,0) = 15.00	 x(3,1) = 5.00	 x(3,2) = 24.00	 x(3,3) = 12.00	 
y(0,1,0) = 0.14	 y(1,0,0) = 0.86	 
y(0,2,0) = 1.00	 y(2,0,0) = 0.00	 
y(0,3,0) = 1.00	 y(3,0,0) = 0.00	 
y(1,2,0) = 0.71	 y(2,1,0) = 0.29	 
y(1,3,0) = 0.97	 y(3,1,0) = 0.03	 
y(2,3,0) = 0.03	 y(3,2,0) = 0.97	 
y(0,1,1) = 0.00	 y(1,0,1) = 1.00	 
y(0,2,1) = 0.15	 y(2,0,1) = 0.85	 
y(0,3,1) = 0.00	 y(3,0,1) = 1.00	 
y(1,2,1) = 0.70	 y(2,1,1) = 0.30	 
y(1,3,1) = 0.19	 y(3,1,1) = 0.81	 
y(2,3,1) = 0.00	 y(3,2,1) = 1.00	 
y(0,1,2) = 0.63	 y(1,0,2) = 0.37	 
y(0,2,2) = 0.17	 y(2,0,2) = 0.83	 
y(0,3,2) = 0.70	 y(3,0,2) = 0.30	 
y(1,2,2) = 0.26	 y(2,1,2) = 0.74	 
y(1,3,2) = 1.00	 y(3,1,2) = 0.00	 
y(2,3,2) = 0.86	 y(3,2,2) = 0.14	 
y(0,1,3) = 0.18	 y(1,0,3) = 0.82	 
y(0,2,3) = 0.20	 y(2,0,3) = 0.80	 
y(0,3,3) = 0.11	 y(3,0,3) = 0.89	 
y(1,2,3) = 0.48	 y(2,1,3) = 0.52	 
y(1,3,3) = 1.00	 y(3,1,3) = 0.00	 
y(2,3,3) = 0.24	 y(3,2,3) = 0.76	 
{(1, 3), (0, 0), (3, 3), (2, 3), (1, 0), (0, 3)}
obj:  1.0000000000000002
erro
[(1, 3), (0, 0), (3, 3), (2, 3), (1, 0), (0, 3)]
cliques:  0 mip: 0
iterações: 12 cortes cliques encontrados: 7 mip: 1066 objective:  33.99999999999999
Coin0506I Presolve 157 (-171) rows, 90 (-71) columns and 490 (-260) elements
Clp1000I sum of infeasibilities 1.79124e-08 - average 1.14092e-10, 0 fixed columns
Coin0506I Presolve 157 (0) rows, 90 (0) columns and 490 (0) elements
Clp0029I End of values pass after 90 iterations
Clp0000I Optimal - objective value 29
Clp0000I Optimal - objective value 29
Coin0511I After Postsolve, objective 29, infeasibilities - dual 0 (0), primal 0 (0)
Clp0000I Optimal - objective value 29
Clp0000I Optimal - objective value 29
Clp0000I Optimal - objective value 29
Coin0511I After Postsolve, objective 29, infeasibilities - dual 0 (0), primal 0 (0)
Clp0032I Optimal objective 29 - 0 iterations time 0.012, Presolve 0.00, Idiot 0.01
Coin3009W Conflict graph built in 0.001 seconds, density: 0.070%
